p cnf 150 1865
-148 -145 0
-149 -146 0
-150 -147 0
-148 -127 0
-149 -128 0
-150 -129 0
-148 -121 0
-149 -122 0
-150 -123 0
-148 -115 0
-149 -116 0
-150 -117 0
-148 -109 0
-149 -110 0
-150 -111 0
-148 -97 0
-149 -98 0
-150 -99 0
-148 -94 0
-149 -95 0
-150 -96 0
-148 -76 0
-149 -77 0
-150 -78 0
-148 -70 0
-149 -71 0
-150 -72 0
-148 -67 0
-149 -68 0
-150 -69 0
-148 -61 0
-149 -62 0
-150 -63 0
-148 -52 0
-149 -53 0
-150 -54 0
-148 -49 0
-149 -50 0
-150 -51 0
-148 -46 0
-149 -47 0
-150 -48 0
-148 -40 0
-149 -41 0
-150 -42 0
-148 -34 0
-149 -35 0
-150 -36 0
-148 -25 0
-149 -26 0
-150 -27 0
-148 -7 0
-149 -8 0
-150 -9 0
-145 -142 0
-146 -143 0
-147 -144 0
-145 -139 0
-146 -140 0
-147 -141 0
-145 -136 0
-146 -137 0
-147 -138 0
-145 -133 0
-146 -134 0
-147 -135 0
-145 -124 0
-146 -125 0
-147 -126 0
-145 -109 0
-146 -110 0
-147 -111 0
-145 -106 0
-146 -107 0
-147 -108 0
-145 -100 0
-146 -101 0
-147 -102 0
-145 -97 0
-146 -98 0
-147 -99 0
-145 -91 0
-146 -92 0
-147 -93 0
-145 -88 0
-146 -89 0
-147 -90 0
-145 -79 0
-146 -80 0
-147 -81 0
-145 -70 0
-146 -71 0
-147 -72 0
-145 -61 0
-146 -62 0
-147 -63 0
-145 -58 0
-146 -59 0
-147 -60 0
-145 -40 0
-146 -41 0
-147 -42 0
-145 -34 0
-146 -35 0
-147 -36 0
-145 -22 0
-146 -23 0
-147 -24 0
-145 -19 0
-146 -20 0
-147 -21 0
-145 -16 0
-146 -17 0
-147 -18 0
-145 -7 0
-146 -8 0
-147 -9 0
-142 -136 0
-143 -137 0
-144 -138 0
-142 -133 0
-143 -134 0
-144 -135 0
-142 -130 0
-143 -131 0
-144 -132 0
-142 -121 0
-143 -122 0
-144 -123 0
-142 -118 0
-143 -119 0
-144 -120 0
-142 -115 0
-143 -116 0
-144 -117 0
-142 -112 0
-143 -113 0
-144 -114 0
-142 -106 0
-143 -107 0
-144 -108 0
-142 -100 0
-143 -101 0
-144 -102 0
-142 -97 0
-143 -98 0
-144 -99 0
-142 -91 0
-143 -92 0
-144 -93 0
-142 -88 0
-143 -89 0
-144 -90 0
-142 -85 0
-143 -86 0
-144 -87 0
-142 -79 0
-143 -80 0
-144 -81 0
-142 -73 0
-143 -74 0
-144 -75 0
-142 -58 0
-143 -59 0
-144 -60 0
-142 -52 0
-143 -53 0
-144 -54 0
-142 -49 0
-143 -50 0
-144 -51 0
-142 -46 0
-143 -47 0
-144 -48 0
-142 -37 0
-143 -38 0
-144 -39 0
-142 -22 0
-143 -23 0
-144 -24 0
-142 -19 0
-143 -20 0
-144 -21 0
-142 -16 0
-143 -17 0
-144 -18 0
-142 -13 0
-143 -14 0
-144 -15 0
-142 -10 0
-143 -11 0
-144 -12 0
-142 -1 0
-143 -2 0
-144 -3 0
-139 -136 0
-140 -137 0
-141 -138 0
-139 -133 0
-140 -134 0
-141 -135 0
-139 -118 0
-140 -119 0
-141 -120 0
-139 -115 0
-140 -116 0
-141 -117 0
-139 -103 0
-140 -104 0
-141 -105 0
-139 -100 0
-140 -101 0
-141 -102 0
-139 -91 0
-140 -92 0
-141 -93 0
-139 -88 0
-140 -89 0
-141 -90 0
-139 -85 0
-140 -86 0
-141 -87 0
-139 -79 0
-140 -80 0
-141 -81 0
-139 -58 0
-140 -59 0
-141 -60 0
-139 -40 0
-140 -41 0
-141 -42 0
-139 -28 0
-140 -29 0
-141 -30 0
-139 -22 0
-140 -23 0
-141 -24 0
-139 -19 0
-140 -20 0
-141 -21 0
-139 -16 0
-140 -17 0
-141 -18 0
-139 -7 0
-140 -8 0
-141 -9 0
-136 -133 0
-137 -134 0
-138 -135 0
-136 -130 0
-137 -131 0
-138 -132 0
-136 -121 0
-137 -122 0
-138 -123 0
-136 -118 0
-137 -119 0
-138 -120 0
-136 -112 0
-137 -113 0
-138 -114 0
-136 -109 0
-137 -110 0
-138 -111 0
-136 -106 0
-137 -107 0
-138 -108 0
-136 -103 0
-137 -104 0
-138 -105 0
-136 -100 0
-137 -101 0
-138 -102 0
-136 -91 0
-137 -92 0
-138 -93 0
-136 -88 0
-137 -89 0
-138 -90 0
-136 -85 0
-137 -86 0
-138 -87 0
-136 -79 0
-137 -80 0
-138 -81 0
-136 -73 0
-137 -74 0
-138 -75 0
-136 -58 0
-137 -59 0
-138 -60 0
-136 -49 0
-137 -50 0
-138 -51 0
-136 -40 0
-137 -41 0
-138 -42 0
-136 -37 0
-137 -38 0
-138 -39 0
-136 -31 0
-137 -32 0
-138 -33 0
-136 -28 0
-137 -29 0
-138 -30 0
-136 -25 0
-137 -26 0
-138 -27 0
-136 -22 0
-137 -23 0
-138 -24 0
-136 -19 0
-137 -20 0
-138 -21 0
-136 -13 0
-137 -14 0
-138 -15 0
-133 -124 0
-134 -125 0
-135 -126 0
-133 -121 0
-134 -122 0
-135 -123 0
-133 -100 0
-134 -101 0
-135 -102 0
-133 -97 0
-134 -98 0
-135 -99 0
-133 -94 0
-134 -95 0
-135 -96 0
-133 -91 0
-134 -92 0
-135 -93 0
-133 -79 0
-134 -80 0
-135 -81 0
-133 -76 0
-134 -77 0
-135 -78 0
-133 -70 0
-134 -71 0
-135 -72 0
-133 -61 0
-134 -62 0
-135 -63 0
-133 -58 0
-134 -59 0
-135 -60 0
-133 -55 0
-134 -56 0
-135 -57 0
-133 -52 0
-134 -53 0
-135 -54 0
-133 -49 0
-134 -50 0
-135 -51 0
-133 -46 0
-134 -47 0
-135 -48 0
-133 -40 0
-134 -41 0
-135 -42 0
-133 -34 0
-134 -35 0
-135 -36 0
-133 -31 0
-134 -32 0
-135 -33 0
-133 -25 0
-134 -26 0
-135 -27 0
-133 -22 0
-134 -23 0
-135 -24 0
-133 -19 0
-134 -20 0
-135 -21 0
-133 -1 0
-134 -2 0
-135 -3 0
-130 -127 0
-131 -128 0
-132 -129 0
-130 -124 0
-131 -125 0
-132 -126 0
-130 -118 0
-131 -119 0
-132 -120 0
-130 -106 0
-131 -107 0
-132 -108 0
-130 -94 0
-131 -95 0
-132 -96 0
-130 -91 0
-131 -92 0
-132 -93 0
-130 -88 0
-131 -89 0
-132 -90 0
-130 -85 0
-131 -86 0
-132 -87 0
-130 -82 0
-131 -83 0
-132 -84 0
-130 -73 0
-131 -74 0
-132 -75 0
-130 -64 0
-131 -65 0
-132 -66 0
-130 -55 0
-131 -56 0
-132 -57 0
-130 -52 0
-131 -53 0
-132 -54 0
-130 -43 0
-131 -44 0
-132 -45 0
-130 -37 0
-131 -38 0
-132 -39 0
-130 -31 0
-131 -32 0
-132 -33 0
-130 -28 0
-131 -29 0
-132 -30 0
-130 -1 0
-131 -2 0
-132 -3 0
-127 -121 0
-128 -122 0
-129 -123 0
-127 -118 0
-128 -119 0
-129 -120 0
-127 -103 0
-128 -104 0
-129 -105 0
-127 -82 0
-128 -83 0
-129 -84 0
-127 -76 0
-128 -77 0
-129 -78 0
-127 -73 0
-128 -74 0
-129 -75 0
-127 -67 0
-128 -68 0
-129 -69 0
-127 -64 0
-128 -65 0
-129 -66 0
-127 -61 0
-128 -62 0
-129 -63 0
-127 -55 0
-128 -56 0
-129 -57 0
-127 -46 0
-128 -47 0
-129 -48 0
-127 -43 0
-128 -44 0
-129 -45 0
-127 -37 0
-128 -38 0
-129 -39 0
-127 -31 0
-128 -32 0
-129 -33 0
-127 -16 0
-128 -17 0
-129 -18 0
-127 -13 0
-128 -14 0
-129 -15 0
-127 -10 0
-128 -11 0
-129 -12 0
-127 -7 0
-128 -8 0
-129 -9 0
-124 -118 0
-125 -119 0
-126 -120 0
-124 -106 0
-125 -107 0
-126 -108 0
-124 -103 0
-125 -104 0
-126 -105 0
-124 -94 0
-125 -95 0
-126 -96 0
-124 -88 0
-125 -89 0
-126 -90 0
-124 -85 0
-125 -86 0
-126 -87 0
-124 -79 0
-125 -80 0
-126 -81 0
-124 -76 0
-125 -77 0
-126 -78 0
-124 -73 0
-125 -74 0
-126 -75 0
-124 -70 0
-125 -71 0
-126 -72 0
-124 -67 0
-125 -68 0
-126 -69 0
-124 -58 0
-125 -59 0
-126 -60 0
-124 -55 0
-125 -56 0
-126 -57 0
-124 -52 0
-125 -53 0
-126 -54 0
-124 -31 0
-125 -32 0
-126 -33 0
-124 -28 0
-125 -29 0
-126 -30 0
-124 -1 0
-125 -2 0
-126 -3 0
-121 -115 0
-122 -116 0
-123 -117 0
-121 -112 0
-122 -113 0
-123 -114 0
-121 -97 0
-122 -98 0
-123 -99 0
-121 -94 0
-122 -95 0
-123 -96 0
-121 -91 0
-122 -92 0
-123 -93 0
-121 -79 0
-122 -80 0
-123 -81 0
-121 -73 0
-122 -74 0
-123 -75 0
-121 -70 0
-122 -71 0
-123 -72 0
-121 -52 0
-122 -53 0
-123 -54 0
-121 -49 0
-122 -50 0
-123 -51 0
-121 -40 0
-122 -41 0
-123 -42 0
-121 -37 0
-122 -38 0
-123 -39 0
-121 -34 0
-122 -35 0
-123 -36 0
-121 -25 0
-122 -26 0
-123 -27 0
-121 -16 0
-122 -17 0
-123 -18 0
-121 -7 0
-122 -8 0
-123 -9 0
-118 -109 0
-119 -110 0
-120 -111 0
-118 -103 0
-119 -104 0
-120 -105 0
-118 -100 0
-119 -101 0
-120 -102 0
-118 -88 0
-119 -89 0
-120 -90 0
-118 -82 0
-119 -83 0
-120 -84 0
-118 -76 0
-119 -77 0
-120 -78 0
-118 -67 0
-119 -68 0
-120 -69 0
-118 -58 0
-119 -59 0
-120 -60 0
-118 -55 0
-119 -56 0
-120 -57 0
-118 -43 0
-119 -44 0
-120 -45 0
-118 -37 0
-119 -38 0
-120 -39 0
-118 -28 0
-119 -29 0
-120 -30 0
-118 -22 0
-119 -23 0
-120 -24 0
-118 -19 0
-119 -20 0
-120 -21 0
-118 -13 0
-119 -14 0
-120 -15 0
-118 -10 0
-119 -11 0
-120 -12 0
-118 -1 0
-119 -2 0
-120 -3 0
-115 -112 0
-116 -113 0
-117 -114 0
-115 -109 0
-116 -110 0
-117 -111 0
-115 -97 0
-116 -98 0
-117 -99 0
-115 -94 0
-116 -95 0
-117 -96 0
-115 -76 0
-116 -77 0
-117 -78 0
-115 -70 0
-116 -71 0
-117 -72 0
-115 -64 0
-116 -65 0
-117 -66 0
-115 -61 0
-116 -62 0
-117 -63 0
-115 -52 0
-116 -53 0
-117 -54 0
-115 -49 0
-116 -50 0
-117 -51 0
-115 -46 0
-116 -47 0
-117 -48 0
-115 -40 0
-116 -41 0
-117 -42 0
-115 -34 0
-116 -35 0
-117 -36 0
-115 -25 0
-116 -26 0
-117 -27 0
-115 -16 0
-116 -17 0
-117 -18 0
-115 -13 0
-116 -14 0
-117 -15 0
-115 -7 0
-116 -8 0
-117 -9 0
-112 -100 0
-113 -101 0
-114 -102 0
-112 -97 0
-113 -98 0
-114 -99 0
-112 -94 0
-113 -95 0
-114 -96 0
-112 -91 0
-113 -92 0
-114 -93 0
-112 -88 0
-113 -89 0
-114 -90 0
-112 -79 0
-113 -80 0
-114 -81 0
-112 -76 0
-113 -77 0
-114 -78 0
-112 -73 0
-113 -74 0
-114 -75 0
-112 -58 0
-113 -59 0
-114 -60 0
-112 -52 0
-113 -53 0
-114 -54 0
-112 -49 0
-113 -50 0
-114 -51 0
-112 -46 0
-113 -47 0
-114 -48 0
-112 -37 0
-113 -38 0
-114 -39 0
-112 -34 0
-113 -35 0
-114 -36 0
-112 -25 0
-113 -26 0
-114 -27 0
-112 -16 0
-113 -17 0
-114 -18 0
-112 -13 0
-113 -14 0
-114 -15 0
-112 -10 0
-113 -11 0
-114 -12 0
-112 -7 0
-113 -8 0
-114 -9 0
-109 -103 0
-110 -104 0
-111 -105 0
-109 -100 0
-110 -101 0
-111 -102 0
-109 -91 0
-110 -92 0
-111 -93 0
-109 -88 0
-110 -89 0
-111 -90 0
-109 -85 0
-110 -86 0
-111 -87 0
-109 -79 0
-110 -80 0
-111 -81 0
-109 -58 0
-110 -59 0
-111 -60 0
-109 -40 0
-110 -41 0
-111 -42 0
-109 -22 0
-110 -23 0
-111 -24 0
-109 -19 0
-110 -20 0
-111 -21 0
-109 -16 0
-110 -17 0
-111 -18 0
-109 -7 0
-110 -8 0
-111 -9 0
-106 -100 0
-107 -101 0
-108 -102 0
-106 -94 0
-107 -95 0
-108 -96 0
-106 -91 0
-107 -92 0
-108 -93 0
-106 -79 0
-107 -80 0
-108 -81 0
-106 -76 0
-107 -77 0
-108 -78 0
-106 -70 0
-107 -71 0
-108 -72 0
-106 -67 0
-107 -68 0
-108 -69 0
-106 -61 0
-107 -62 0
-108 -63 0
-106 -58 0
-107 -59 0
-108 -60 0
-106 -55 0
-107 -56 0
-108 -57 0
-106 -52 0
-107 -53 0
-108 -54 0
-106 -49 0
-107 -50 0
-108 -51 0
-106 -46 0
-107 -47 0
-108 -48 0
-106 -40 0
-107 -41 0
-108 -42 0
-106 -34 0
-107 -35 0
-108 -36 0
-106 -31 0
-107 -32 0
-108 -33 0
-106 -28 0
-107 -29 0
-108 -30 0
-106 -25 0
-107 -26 0
-108 -27 0
-106 -22 0
-107 -23 0
-108 -24 0
-106 -19 0
-107 -20 0
-108 -21 0
-106 -1 0
-107 -2 0
-108 -3 0
-103 -91 0
-104 -92 0
-105 -93 0
-103 -88 0
-104 -89 0
-105 -90 0
-103 -85 0
-104 -86 0
-105 -87 0
-103 -82 0
-104 -83 0
-105 -84 0
-103 -73 0
-104 -74 0
-105 -75 0
-103 -67 0
-104 -68 0
-105 -69 0
-103 -61 0
-104 -62 0
-105 -63 0
-103 -37 0
-104 -38 0
-105 -39 0
-103 -31 0
-104 -32 0
-105 -33 0
-103 -28 0
-104 -29 0
-105 -30 0
-103 -19 0
-104 -20 0
-105 -21 0
-103 -16 0
-104 -17 0
-105 -18 0
-103 -7 0
-104 -8 0
-105 -9 0
-103 -4 0
-104 -5 0
-105 -6 0
-100 -91 0
-101 -92 0
-102 -93 0
-100 -88 0
-101 -89 0
-102 -90 0
-100 -85 0
-101 -86 0
-102 -87 0
-100 -79 0
-101 -80 0
-102 -81 0
-100 -73 0
-101 -74 0
-102 -75 0
-100 -52 0
-101 -53 0
-102 -54 0
-100 -49 0
-101 -50 0
-102 -51 0
-100 -37 0
-101 -38 0
-102 -39 0
-100 -31 0
-101 -32 0
-102 -33 0
-100 -28 0
-101 -29 0
-102 -30 0
-100 -25 0
-101 -26 0
-102 -27 0
-100 -19 0
-101 -20 0
-102 -21 0
-97 -94 0
-98 -95 0
-99 -96 0
-97 -82 0
-98 -83 0
-99 -84 0
-97 -79 0
-98 -80 0
-99 -81 0
-97 -76 0
-98 -77 0
-99 -78 0
-97 -70 0
-98 -71 0
-99 -72 0
-97 -64 0
-98 -65 0
-99 -66 0
-97 -61 0
-98 -62 0
-99 -63 0
-97 -49 0
-98 -50 0
-99 -51 0
-97 -46 0
-98 -47 0
-99 -48 0
-97 -43 0
-98 -44 0
-99 -45 0
-97 -40 0
-98 -41 0
-99 -42 0
-97 -34 0
-98 -35 0
-99 -36 0
-97 -25 0
-98 -26 0
-99 -27 0
-97 -16 0
-98 -17 0
-99 -18 0
-94 -82 0
-95 -83 0
-96 -84 0
-94 -79 0
-95 -80 0
-96 -81 0
-94 -76 0
-95 -77 0
-96 -78 0
-94 -73 0
-95 -74 0
-96 -75 0
-94 -64 0
-95 -65 0
-96 -66 0
-94 -58 0
-95 -59 0
-96 -60 0
-94 -55 0
-95 -56 0
-96 -57 0
-94 -52 0
-95 -53 0
-96 -54 0
-94 -49 0
-95 -50 0
-96 -51 0
-94 -46 0
-95 -47 0
-96 -48 0
-94 -43 0
-95 -44 0
-96 -45 0
-94 -37 0
-95 -38 0
-96 -39 0
-94 -31 0
-95 -32 0
-96 -33 0
-94 -28 0
-95 -29 0
-96 -30 0
-94 -10 0
-95 -11 0
-96 -12 0
-94 -1 0
-95 -2 0
-96 -3 0
-91 -88 0
-92 -89 0
-93 -90 0
-91 -58 0
-92 -59 0
-93 -60 0
-91 -55 0
-92 -56 0
-93 -57 0
-91 -52 0
-92 -53 0
-93 -54 0
-91 -37 0
-92 -38 0
-93 -39 0
-91 -28 0
-92 -29 0
-93 -30 0
-91 -25 0
-92 -26 0
-93 -27 0
-91 -22 0
-92 -23 0
-93 -24 0
-91 -19 0
-92 -20 0
-93 -21 0
-91 -13 0
-92 -14 0
-93 -15 0
-91 -10 0
-92 -11 0
-93 -12 0
-88 -85 0
-89 -86 0
-90 -87 0
-88 -79 0
-89 -80 0
-90 -81 0
-88 -73 0
-89 -74 0
-90 -75 0
-88 -58 0
-89 -59 0
-90 -60 0
-88 -55 0
-89 -56 0
-90 -57 0
-88 -49 0
-89 -50 0
-90 -51 0
-88 -37 0
-89 -38 0
-90 -39 0
-88 -31 0
-89 -32 0
-90 -33 0
-88 -28 0
-89 -29 0
-90 -30 0
-88 -25 0
-89 -26 0
-90 -27 0
-88 -22 0
-89 -23 0
-90 -24 0
-88 -19 0
-89 -20 0
-90 -21 0
-88 -13 0
-89 -14 0
-90 -15 0
-88 -4 0
-89 -5 0
-90 -6 0
-85 -67 0
-86 -68 0
-87 -69 0
-85 -61 0
-86 -62 0
-87 -63 0
-85 -58 0
-86 -59 0
-87 -60 0
-85 -55 0
-86 -56 0
-87 -57 0
-85 -37 0
-86 -38 0
-87 -39 0
-85 -28 0
-86 -29 0
-87 -30 0
-85 -22 0
-86 -23 0
-87 -24 0
-85 -19 0
-86 -20 0
-87 -21 0
-85 -4 0
-86 -5 0
-87 -6 0
-85 -1 0
-86 -2 0
-87 -3 0
-82 -76 0
-83 -77 0
-84 -78 0
-82 -73 0
-83 -74 0
-84 -75 0
-82 -67 0
-83 -68 0
-84 -69 0
-82 -61 0
-83 -62 0
-84 -63 0
-82 -55 0
-83 -56 0
-84 -57 0
-82 -52 0
-83 -53 0
-84 -54 0
-82 -46 0
-83 -47 0
-84 -48 0
-82 -37 0
-83 -38 0
-84 -39 0
-82 -34 0
-83 -35 0
-84 -36 0
-82 -31 0
-83 -32 0
-84 -33 0
-82 -28 0
-83 -29 0
-84 -30 0
-82 -16 0
-83 -17 0
-84 -18 0
-82 -13 0
-83 -14 0
-84 -15 0
-82 -10 0
-83 -11 0
-84 -12 0
-82 -4 0
-83 -5 0
-84 -6 0
-82 -1 0
-83 -2 0
-84 -3 0
-79 -76 0
-80 -77 0
-81 -78 0
-79 -70 0
-80 -71 0
-81 -72 0
-79 -61 0
-80 -62 0
-81 -63 0
-79 -58 0
-80 -59 0
-81 -60 0
-79 -55 0
-80 -56 0
-81 -57 0
-79 -52 0
-80 -53 0
-81 -54 0
-79 -46 0
-80 -47 0
-81 -48 0
-79 -40 0
-80 -41 0
-81 -42 0
-79 -34 0
-80 -35 0
-81 -36 0
-79 -25 0
-80 -26 0
-81 -27 0
-79 -22 0
-80 -23 0
-81 -24 0
-79 -19 0
-80 -20 0
-81 -21 0
-79 -1 0
-80 -2 0
-81 -3 0
-76 -73 0
-77 -74 0
-78 -75 0
-76 -70 0
-77 -71 0
-78 -72 0
-76 -67 0
-77 -68 0
-78 -69 0
-76 -64 0
-77 -65 0
-78 -66 0
-76 -55 0
-77 -56 0
-78 -57 0
-76 -52 0
-77 -53 0
-78 -54 0
-76 -49 0
-77 -50 0
-78 -51 0
-76 -43 0
-77 -44 0
-78 -45 0
-76 -37 0
-77 -38 0
-78 -39 0
-76 -34 0
-77 -35 0
-78 -36 0
-76 -31 0
-77 -32 0
-78 -33 0
-76 -28 0
-77 -29 0
-78 -30 0
-76 -25 0
-77 -26 0
-78 -27 0
-76 -4 0
-77 -5 0
-78 -6 0
-76 -1 0
-77 -2 0
-78 -3 0
-73 -64 0
-74 -65 0
-75 -66 0
-73 -58 0
-74 -59 0
-75 -60 0
-73 -55 0
-74 -56 0
-75 -57 0
-73 -43 0
-74 -44 0
-75 -45 0
-73 -37 0
-74 -38 0
-75 -39 0
-73 -28 0
-74 -29 0
-75 -30 0
-73 -25 0
-74 -26 0
-75 -27 0
-73 -22 0
-74 -23 0
-75 -24 0
-73 -19 0
-74 -20 0
-75 -21 0
-73 -13 0
-74 -14 0
-75 -15 0
-73 -10 0
-74 -11 0
-75 -12 0
-73 -1 0
-74 -2 0
-75 -3 0
-70 -67 0
-71 -68 0
-72 -69 0
-70 -64 0
-71 -65 0
-72 -66 0
-70 -61 0
-71 -62 0
-72 -63 0
-70 -58 0
-71 -59 0
-72 -60 0
-70 -46 0
-71 -47 0
-72 -48 0
-70 -40 0
-71 -41 0
-72 -42 0
-70 -22 0
-71 -23 0
-72 -24 0
-70 -19 0
-71 -20 0
-72 -21 0
-70 -7 0
-71 -8 0
-72 -9 0
-67 -64 0
-68 -65 0
-69 -66 0
-67 -61 0
-68 -62 0
-69 -63 0
-67 -43 0
-68 -44 0
-69 -45 0
-67 -40 0
-68 -41 0
-69 -42 0
-67 -34 0
-68 -35 0
-69 -36 0
-67 -31 0
-68 -32 0
-69 -33 0
-67 -28 0
-68 -29 0
-69 -30 0
-67 -4 0
-68 -5 0
-69 -6 0
-67 -1 0
-68 -2 0
-69 -3 0
-64 -61 0
-65 -62 0
-66 -63 0
-64 -55 0
-65 -56 0
-66 -57 0
-64 -52 0
-65 -53 0
-66 -54 0
-64 -49 0
-65 -50 0
-66 -51 0
-64 -46 0
-65 -47 0
-66 -48 0
-64 -37 0
-65 -38 0
-66 -39 0
-64 -34 0
-65 -35 0
-66 -36 0
-64 -31 0
-65 -32 0
-66 -33 0
-64 -25 0
-65 -26 0
-66 -27 0
-64 -13 0
-65 -14 0
-66 -15 0
-64 -10 0
-65 -11 0
-66 -12 0
-64 -4 0
-65 -5 0
-66 -6 0
-64 -1 0
-65 -2 0
-66 -3 0
-61 -34 0
-62 -35 0
-63 -36 0
-61 -28 0
-62 -29 0
-63 -30 0
-61 -4 0
-62 -5 0
-63 -6 0
-61 -1 0
-62 -2 0
-63 -3 0
-58 -52 0
-59 -53 0
-60 -54 0
-58 -49 0
-59 -50 0
-60 -51 0
-58 -40 0
-59 -41 0
-60 -42 0
-58 -37 0
-59 -38 0
-60 -39 0
-58 -25 0
-59 -26 0
-60 -27 0
-58 -19 0
-59 -20 0
-60 -21 0
-58 -1 0
-59 -2 0
-60 -3 0
-55 -52 0
-56 -53 0
-57 -54 0
-55 -46 0
-56 -47 0
-57 -48 0
-55 -43 0
-56 -44 0
-57 -45 0
-55 -37 0
-56 -38 0
-57 -39 0
-55 -34 0
-56 -35 0
-57 -36 0
-55 -31 0
-56 -32 0
-57 -33 0
-55 -13 0
-56 -14 0
-57 -15 0
-55 -10 0
-56 -11 0
-57 -12 0
-52 -49 0
-53 -50 0
-54 -51 0
-52 -46 0
-53 -47 0
-54 -48 0
-52 -43 0
-53 -44 0
-54 -45 0
-52 -34 0
-53 -35 0
-54 -36 0
-52 -31 0
-53 -32 0
-54 -33 0
-52 -28 0
-53 -29 0
-54 -30 0
-52 -25 0
-53 -26 0
-54 -27 0
-52 -19 0
-53 -20 0
-54 -21 0
-52 -1 0
-53 -2 0
-54 -3 0
-49 -46 0
-50 -47 0
-51 -48 0
-49 -34 0
-50 -35 0
-51 -36 0
-49 -25 0
-50 -26 0
-51 -27 0
-49 -22 0
-50 -23 0
-51 -24 0
-49 -19 0
-50 -20 0
-51 -21 0
-49 -16 0
-50 -17 0
-51 -18 0
-49 -13 0
-50 -14 0
-51 -15 0
-49 -1 0
-50 -2 0
-51 -3 0
-46 -43 0
-47 -44 0
-48 -45 0
-46 -40 0
-47 -41 0
-48 -42 0
-46 -34 0
-47 -35 0
-48 -36 0
-46 -25 0
-47 -26 0
-48 -27 0
-46 -7 0
-47 -8 0
-48 -9 0
-46 -1 0
-47 -2 0
-48 -3 0
-43 -37 0
-44 -38 0
-45 -39 0
-43 -34 0
-44 -35 0
-45 -36 0
-43 -31 0
-44 -32 0
-45 -33 0
-43 -28 0
-44 -29 0
-45 -30 0
-43 -16 0
-44 -17 0
-45 -18 0
-43 -13 0
-44 -14 0
-45 -15 0
-43 -10 0
-44 -11 0
-45 -12 0
-43 -4 0
-44 -5 0
-45 -6 0
-43 -1 0
-44 -2 0
-45 -3 0
-40 -34 0
-41 -35 0
-42 -36 0
-40 -22 0
-41 -23 0
-42 -24 0
-40 -19 0
-41 -20 0
-42 -21 0
-40 -16 0
-41 -17 0
-42 -18 0
-40 -7 0
-41 -8 0
-42 -9 0
-37 -31 0
-38 -32 0
-39 -33 0
-37 -28 0
-38 -29 0
-39 -30 0
-37 -25 0
-38 -26 0
-39 -27 0
-37 -22 0
-38 -23 0
-39 -24 0
-37 -16 0
-38 -17 0
-39 -18 0
-37 -13 0
-38 -14 0
-39 -15 0
-37 -10 0
-38 -11 0
-39 -12 0
-37 -1 0
-38 -2 0
-39 -3 0
-34 -7 0
-35 -8 0
-36 -9 0
-34 -1 0
-35 -2 0
-36 -3 0
-31 -28 0
-32 -29 0
-33 -30 0
-31 -13 0
-32 -14 0
-33 -15 0
-31 -10 0
-32 -11 0
-33 -12 0
-31 -1 0
-32 -2 0
-33 -3 0
-28 -22 0
-29 -23 0
-30 -24 0
-28 -13 0
-29 -14 0
-30 -15 0
-28 -10 0
-29 -11 0
-30 -12 0
-28 -4 0
-29 -5 0
-30 -6 0
-25 -22 0
-26 -23 0
-27 -24 0
-25 -19 0
-26 -20 0
-27 -21 0
-25 -16 0
-26 -17 0
-27 -18 0
-25 -13 0
-26 -14 0
-27 -15 0
-25 -7 0
-26 -8 0
-27 -9 0
-25 -1 0
-26 -2 0
-27 -3 0
-22 -19 0
-23 -20 0
-24 -21 0
-22 -16 0
-23 -17 0
-24 -18 0
-22 -7 0
-23 -8 0
-24 -9 0
-22 -4 0
-23 -5 0
-24 -6 0
-19 -7 0
-20 -8 0
-21 -9 0
-16 -13 0
-17 -14 0
-18 -15 0
-16 -10 0
-17 -11 0
-18 -12 0
-16 -7 0
-17 -8 0
-18 -9 0
-16 -4 0
-17 -5 0
-18 -6 0
-13 -7 0
-14 -8 0
-15 -9 0
-13 -4 0
-14 -5 0
-15 -6 0
-10 -7 0
-11 -8 0
-12 -9 0
-10 -4 0
-11 -5 0
-12 -6 0
-7 -4 0
-8 -5 0
-9 -6 0
148 149 150 0
-148 -149 0
-148 -150 0
-149 -150 0
145 146 147 0
-145 -146 0
-145 -147 0
-146 -147 0
142 143 144 0
-142 -143 0
-142 -144 0
-143 -144 0
139 140 141 0
-139 -140 0
-139 -141 0
-140 -141 0
136 137 138 0
-136 -137 0
-136 -138 0
-137 -138 0
133 134 135 0
-133 -134 0
-133 -135 0
-134 -135 0
130 131 132 0
-130 -131 0
-130 -132 0
-131 -132 0
127 128 129 0
-127 -128 0
-127 -129 0
-128 -129 0
124 125 126 0
-124 -125 0
-124 -126 0
-125 -126 0
121 122 123 0
-121 -122 0
-121 -123 0
-122 -123 0
118 119 120 0
-118 -119 0
-118 -120 0
-119 -120 0
115 116 117 0
-115 -116 0
-115 -117 0
-116 -117 0
112 113 114 0
-112 -113 0
-112 -114 0
-113 -114 0
109 110 111 0
-109 -110 0
-109 -111 0
-110 -111 0
106 107 108 0
-106 -107 0
-106 -108 0
-107 -108 0
103 104 105 0
-103 -104 0
-103 -105 0
-104 -105 0
100 101 102 0
-100 -101 0
-100 -102 0
-101 -102 0
97 98 99 0
-97 -98 0
-97 -99 0
-98 -99 0
94 95 96 0
-94 -95 0
-94 -96 0
-95 -96 0
91 92 93 0
-91 -92 0
-91 -93 0
-92 -93 0
88 89 90 0
-88 -89 0
-88 -90 0
-89 -90 0
85 86 87 0
-85 -86 0
-85 -87 0
-86 -87 0
82 83 84 0
-82 -83 0
-82 -84 0
-83 -84 0
79 80 81 0
-79 -80 0
-79 -81 0
-80 -81 0
76 77 78 0
-76 -77 0
-76 -78 0
-77 -78 0
73 74 75 0
-73 -74 0
-73 -75 0
-74 -75 0
70 71 72 0
-70 -71 0
-70 -72 0
-71 -72 0
67 68 69 0
-67 -68 0
-67 -69 0
-68 -69 0
64 65 66 0
-64 -65 0
-64 -66 0
-65 -66 0
61 62 63 0
-61 -62 0
-61 -63 0
-62 -63 0
58 59 60 0
-58 -59 0
-58 -60 0
-59 -60 0
55 56 57 0
-55 -56 0
-55 -57 0
-56 -57 0
52 53 54 0
-52 -53 0
-52 -54 0
-53 -54 0
49 50 51 0
-49 -50 0
-49 -51 0
-50 -51 0
46 47 48 0
-46 -47 0
-46 -48 0
-47 -48 0
43 44 45 0
-43 -44 0
-43 -45 0
-44 -45 0
40 41 42 0
-40 -41 0
-40 -42 0
-41 -42 0
37 38 39 0
-37 -38 0
-37 -39 0
-38 -39 0
34 35 36 0
-34 -35 0
-34 -36 0
-35 -36 0
31 32 33 0
-31 -32 0
-31 -33 0
-32 -33 0
28 29 30 0
-28 -29 0
-28 -30 0
-29 -30 0
25 26 27 0
-25 -26 0
-25 -27 0
-26 -27 0
22 23 24 0
-22 -23 0
-22 -24 0
-23 -24 0
19 20 21 0
-19 -20 0
-19 -21 0
-20 -21 0
16 17 18 0
-16 -17 0
-16 -18 0
-17 -18 0
13 14 15 0
-13 -14 0
-13 -15 0
-14 -15 0
10 11 12 0
-10 -11 0
-10 -12 0
-11 -12 0
7 8 9 0
-7 -8 0
-7 -9 0
-8 -9 0
4 5 6 0
-4 -5 0
-4 -6 0
-5 -6 0
1 2 3 0
-1 -2 0
-1 -3 0
-2 -3 0
